(set-logic BV)

(synth-fun deobfucated ( (a (BitVec 64))  (b (BitVec 64))  ) (BitVec 64)
	(
		(Start (BitVec 64)
			(
				(bvnot Start)
				(bvxor Start Start)
				(bvand Start Start)
				(bvor Start Start)
				(bvneg Start)
				(bvadd Start Start)
				(bvmul Start Start)
				(bvsub Start Start)
				a b
			)
		)
	)
)

(constraint (= (deobfucated #x0000000031e57998 #x0000000026c9c5b3) #xfffffffffbb63bfd))
(constraint (= (deobfucated #x0000000019d11931 #x0000000022c1a791) #xffffffffdf7eff6f))
(constraint (= (deobfucated #x0000000021173819 #x000000001c2fea8a) #xfffffffff7ddb5fe))
(constraint (= (deobfucated #x0000000020aa32f6 #x000000001e6409a5) #xffffffffe79fffff))
(constraint (= (deobfucated #x00000000095c87aa #x0000000000ab8315) #xffffffffff577fef))
(constraint (= (deobfucated #x0000000021e0029a #x000000003a0c9fbf) #xffffffffedff7b7d))
(constraint (= (deobfucated #x0000000018efd8e7 #x00000000029c263e) #xfffffffffd77ddfe))
(constraint (= (deobfucated #x0000000032c3eec3 #x000000001549b50e) #xffffffffebbe7ffe))
(constraint (= (deobfucated #x0000000008522706 #x0000000012e3ca0d) #xffffffffed1c3dff))
(constraint (= (deobfucated #x000000002a10d673 #x000000001cedd460) #xfffffffff35babb2))
(constraint (= (deobfucated #x00000000177c2313 #x0000000005ac5d68) #xfffffffffedfbbfa))
(constraint (= (deobfucated #x000000000b53ef57 #x0000000021350997) #xffffffffdefefee9))
(constraint (= (deobfucated #x00000000185fcb47 #x000000001c546938) #xfffffffff3ffbeda))
(constraint (= (deobfucated #x000000000a38bb5e #x00000000273507c7) #xfffffffffdeefcfd))
(constraint (= (deobfucated #x0000000016edfb8b #x000000001e29f490) #xfffffffffbdfcff2))
(constraint (= (deobfucated #x0000000003b0b7f6 #x000000002aea05d7) #xffffffffd537ffbd))
(constraint (= (deobfucated #x000000000d86a983 #x000000002da05116) #xfffffffffadfefee))
(constraint (= (deobfucated #x000000000acb77f0 #x000000002cbba878) #xfffffffffbd6d788))
(constraint (= (deobfucated #x0000000024560884 #x000000002e6517a3) #xffffffffdfbaf85d))
(constraint (= (deobfucated #x0000000017d77865 #x000000001366a992) #xffffffffffdb567e))
(check-synth)